; benchmark generated from python API
(set-info :status unknown)
(declare-datatypes ((RealState 0)) (((RMk1 (rval1 Real)) (RMk2 (rval2 Real)))))
 (declare-fun I1uscore1dollarskuscore419 () Real)
(declare-fun ep () Real)
(declare-fun V () Real)
(declare-fun v2uscore1dollarskuscore419 () Real)
(declare-fun v1uscore1dollarskuscore419 () Real)
(declare-fun t432uscore0 () Real)
(declare-fun x1uscore1dollarskuscore261 () Real)
(declare-fun xI1 () Real)
(declare-fun x2uscore1dollarskuscore300 () Real)
(declare-fun xI2 () Real)
(declare-fun A () Real)
(declare-fun v2 () Real)
(declare-fun v1 () Real)
(declare-fun B () Real)
(declare-fun x2 () Real)
(declare-fun I2 () Real)
(declare-fun x1 () Real)
(declare-fun I1 () Real)
(declare-fun I2uscore1dollarskuscore419 () Real)
(assert
 (let (($x182 (exists ((ts432uscore0_st RealState) (val!18 Real) )(let (($x127 (= I1uscore1dollarskuscore419 2.0)))
 (let (($x120 (or $x127 (= 0.0 2.0))))
 (let (($x24 (>= v2uscore1dollarskuscore419 0.0)))
 (let (($x184 (>= v1uscore1dollarskuscore419 0.0)))
 (let (($x156 (and (and (and $x184 (<= v1uscore1dollarskuscore419 V)) $x24) (<= v2uscore1dollarskuscore419 V))))
 (let (($x195 (=> (and (<= 0.0 (rval2 ts432uscore0_st)) (<= (rval2 ts432uscore0_st) t432uscore0)) (and $x156 (<= (+ (rval2 ts432uscore0_st) 0.0) ep)))))
 (let (($x154 (>= t432uscore0 0.0)))
 (let (($x164 (= xI1 x1uscore1dollarskuscore261)))
 (let (($x212 (= xI2 x2uscore1dollarskuscore300)))
 (let (($x68 (or $x212 $x164)))
 (let (($x79 (>= A 0.0)))
 (let (($x189 (>= v2 0.0)))
 (let (($x17 (>= v1 0.0)))
 (let (($x180 (= I2 2.0)))
 (let (($x175 (= I1 2.0)))
 (let (($x14 (= I2uscore1dollarskuscore419 2.0)))
 (let (($x20 (= v1uscore1dollarskuscore419 0.0)))
 (let (($x217 (= v2uscore1dollarskuscore419 0.0)))
 (let (($x57 (and (and (and (and (and $x217 $x20) $x127) $x14) $x175) (< xI1 x1))))
 (let (($x130 (and (and (and (and $x57 $x180) (< xI2 x2)) (> B 0.0)) $x17)))
 (let (($x124 (and (and (and (and (and $x130 (<= v1 V)) $x189) (<= v2 V)) $x79) (> V 0.0))))
 (let (($x198 (and $x124 (> ep 0.0))))
 (let (($x94 (not (= ts432uscore0_st (RMk1 val!18)))))
 (and $x94 (=> $x198 (or $x68 (=> (and $x154 $x195) $x120))))))))))))))))))))))))))))
 ))
 (not $x182)))
(check-sat)
